23 156
19
3 3 2 34
3 4 2 37
3 5 2 41
3 6 2 46
3 7 2 52
3 8 2 59
3 9 2 67
3 10 2 76
3 11 2 86
3 12 2 97
3 14 2 109
3 20 2 123
4 3 1 143
4 4 1 146
4 6 1 150
4 10 5 145
4 11 9 144
4 12 13 143
6 3 17 152
